Route 1: 65 82 69 98 90 83 66 56 91 96 80
Route 2: 92 95 94 71 72 81 54 68 70 100
Route 3: 61 88 53 55 60
Route 4: 64 99 52 86 57 74 24
Route 5: 63 62 67 84 51 85 50 93
Route 6: 7 45 3 5 8 6 2 46 4 1
Route 7: 12 14 16 15 9 10 13 17
Route 8: 59 11 47 78 58
Route 9: 42 39 37 38 40 41 35 43
Route 10: 21 23 22 19 49 48 20
Route 11: 36 44 31 32 34
Route 12: 79 73
Route 13: 87 97 75 77
Route 14: 33 76 18 25
Route 15: 27 30 28 29 26 89
Vehicles: 15
Distance: 1987.30
